/*********************************************
    * Lab01 - simple
    * Author: Coso
    * Creation Date: Mar, 2019
    *********************************************/
instance_name = "medium_instance_16_simple";

d = 5;
r = 15;

SCj = [249 233 240 241 229];
Dk = [10 26 36 42 50 72 66 14 100 31 23 89 97 61 74];

Cjk = [[37 59 72 87 58 79 39 87 70 46 67 60 85 62 73]
 [63 30 65 89 49 31 80 32 80 81 39 66 39 88 45]
 [40 53 86 45 40 79 34 72 58 77 62 82 70 47 89]
 [48 38 35 47 58 75 65 60 87 56 58 78 35 80 70]
 [69 76 61 35 56 64 52 33 40 41 68 45 89 37 32]];
